<number of tasks>
32

<cycle time>
1572

<task times>
1 458
2 276
3 520
4 1400
5 352
6 196
7 214
8 456
9 646
10 512
11 408
12 262
13 544
14 202
15 458
16 694
17 616
18 678
19 328
20 324
21 100
22 352
23 544
24 500
25 382
26 858
27 388
28 352
29 428
30 238
31 258
32 196

<precedence relations>
1,5
2,6
3,9
4,15
5,6
6,7
6,8
6,9
7,21
8,21
9,10
9,11
10,16
11,12
12,13
13,14
13,15
14,16
14,17
15,17
16,18
17,19
18,21
19,20
20,21
21,22
21,23
21,24
22,25
23,32
24,32
25,26
26,27
27,28
28,29
29,30
30,31
31,32

<setup times forward>
1,2:186
1,4:134
2,1:186
2,3:186
2,4:52
2,5:186
3,2:186
3,4:134
3,6:186
3,7:210
3,8:140
3,9:186
4,1:134
4,2:52
4,3:134
4,5:134
4,6:52
4,7:76
4,8:6
4,9:52
4,10:46
4,11:52
4,12:46
4,13:46
4,14:31
4,15:31
4,16:31
4,18:76
5,2:186
5,4:134
5,6:186
6,3:186
6,4:52
6,7:24
6,8:46
7,3:210
7,4:76
7,8:70
7,9:24
7,10:122
7,11:24
7,12:122
7,13:122
7,14:107
7,15:107
7,16:107
7,19:70
7,20:70
7,21:70
8,3:140
8,4:6
8,7:70
8,9:46
8,10:52
8,11:46
8,12:52
8,13:52
8,14:37
8,15:37
8,16:37
8,17:70
8,18:70
9,4:52
9,7:24
9,8:46
9,10:98
10,4:46
10,7:122
10,8:52
10,11:98
10,14:15
10,15:15
10,16:15
10,17:122
10,19:52
10,20:52
11,4:52
11,7:24
11,8:46
11,10:98
11,12:98
12,4:46
12,7:122
12,8:52
13,4:46
13,7:122
13,8:52
13,14:15
13,15:15
14,4:31
14,7:107
14,8:37
14,10:15
14,17:107
15,7:107
15,8:37
15,10:15
15,17:107
15,18:107
16,4:31
16,7:107
16,8:37
16,17:107
16,18:107
16,19:37
16,20:37
17,8:70
17,10:122
17,16:107
17,19:70
18,4:76
18,8:70
18,15:107
18,19:70
18,20:70
18,21:70
19,7:70
19,10:52
19,16:37
19,18:70
20,7:70
20,10:52
20,16:37
20,18:70
21,23:112
21,24:112
22,23:112
22,24:112
22,25:112
23,22:112
23,26:188
23,27:188
23,28:68
23,29:68
23,30:68
23,31:68
23,32:68
24,22:112
24,26:188
24,27:188
24,28:68
24,29:68
24,30:68
24,31:68
24,32:68
25,26:188
26,23:188
26,24:188
27,23:188
27,24:188
27,28:120
28,23:68
28,24:68
29,23:68
29,24:68
30,23:68
30,24:68
31,23:68
31,24:68

<setup times backward>
1,1:12
1,2:198
1,3:12
1,4:146
2,2:12
3,1:12
3,2:198
3,3:12
3,4:146
3,5:12
3,6:198
3,7:222
3,8:152
4,2:64
4,4:12
4,6:64
4,7:88
4,8:18
4,9:64
4,11:64
4,18:88
5,1:12
5,2:198
5,3:12
5,4:146
5,5:12
6,2:12
6,6:12
7,7:12
7,17:12
7,18:12
8,2:58
8,4:6
8,6:58
8,7:82
8,8:12
8,9:58
8,11:58
8,17:82
8,18:82
8,19:12
8,20:12
9,2:12
9,6:12
9,7:36
9,9:12
10,2:110
10,4:58
10,6:110
10,7:134
10,8:64
10,9:110
10,10:12
10,11:110
10,12:12
10,13:12
10,14:27
10,15:27
10,17:134
10,19:64
10,20:64
11,2:12
11,6:12
11,7:36
11,9:12
11,11:12
12,2:110
12,4:58
12,6:110
12,7:134
12,8:64
12,9:110
12,10:12
12,11:110
12,12:12
13,2:110
13,4:58
13,6:110
13,7:134
13,8:64
13,9:110
13,10:12
13,11:110
13,12:12
13,13:12
14,2:95
14,4:43
14,6:95
14,7:119
14,8:49
14,9:95
14,11:95
14,14:12
14,15:12
15,2:95
15,4:43
15,6:95
15,7:119
15,8:49
15,9:95
15,11:95
15,14:12
15,15:12
15,16:12
15,18:119
16,2:95
16,4:43
16,6:95
16,7:119
16,8:49
16,9:95
16,11:95
16,14:12
16,15:12
16,16:12
16,17:119
16,19:49
16,20:49
17,7:12
17,17:12
17,18:12
18,7:12
18,17:12
18,18:12
19,2:58
19,4:6
19,6:58
19,7:82
19,8:12
19,9:58
19,11:58
19,17:82
19,18:82
19,19:12
20,2:58
20,4:6
20,6:58
20,7:82
20,8:12
20,9:58
20,11:58
20,17:82
20,18:82
20,19:12
20,20:12
21,2:58
21,4:6
21,6:58
21,7:82
21,8:12
21,9:58
21,11:58
21,17:82
21,18:82
21,19:12
21,20:12
21,21:12
22,2:58
22,4:6
22,6:58
22,7:82
22,8:12
22,9:58
22,11:58
22,17:82
22,18:82
22,19:12
22,20:12
22,21:12
22,22:12
22,23:124
22,24:124
23,23:12
23,24:12
23,25:12
24,23:12
24,24:12
24,25:12
25,23:12
25,24:12
25,25:12
26,2:134
26,4:82
26,6:134
26,7:158
26,8:88
26,9:134
26,10:36
26,11:134
26,12:36
26,13:36
26,14:51
26,15:51
26,16:51
26,17:158
26,18:158
26,19:88
26,20:88
26,21:88
26,22:88
26,23:200
26,24:200
26,25:200
26,26:12
27,2:134
27,4:82
27,6:134
27,7:158
27,8:88
27,9:134
27,10:36
27,11:134
27,12:36
27,13:36
27,14:51
27,15:51
27,16:51
27,17:158
27,18:158
27,19:88
27,20:88
27,21:88
27,22:88
27,23:200
27,24:200
27,25:200
27,26:12
27,27:12
28,2:14
28,6:14
28,7:38
28,9:14
28,11:14
28,17:38
28,18:38
28,23:80
28,24:80
28,25:80
28,28:12
29,2:14
29,6:14
29,7:38
29,9:14
29,11:14
29,17:38
29,18:38
29,23:80
29,24:80
29,25:80
29,28:12
29,29:12
30,2:14
30,6:14
30,7:38
30,9:14
30,11:14
30,17:38
30,18:38
30,23:80
30,24:80
30,25:80
30,28:12
30,29:12
30,30:12
31,2:14
31,6:14
31,7:38
31,9:14
31,11:14
31,17:38
31,18:38
31,23:80
31,24:80
31,25:80
31,28:12
31,29:12
31,30:12
31,31:12
32,2:14
32,6:14
32,7:38
32,9:14
32,11:14
32,17:38
32,18:38
32,23:80
32,24:80
32,25:80
32,28:12
32,29:12
32,30:12
32,31:12
32,32:12

<end>

<optimal SALBP-1 value>
10


<rand seed>
467321153

